1437604
14 5 14272
5 13 6994
13 25 1644
25 18 7368
18 9 9870
9 4 8395
4 29 53285
29 28 52270
28 2 6275
2 30 6204
30 6 7944
6 15 10550
15 21 19591
21 3 168124
3 7 5029
7 27 7370
27 8 98591
8 12 61690
12 23 132796
23 10 54017
10 17 52694
17 24 276644
24 1 54636
1 20 190821
20 19 59143
19 22 8375
22 11 10310
11 16 17050
16 26 23200
26 14 12452
